\ Original Variable and Constraint Names have been replaced by generic names.
Minimize
Obj: +1692.76032450737 x_14 +2307.23967549263 x_15 +1692.76032450737 x_16 +2307.23967549263 x_17 +1692.76032450737 x_18 +2307.23967549263 x_19 +1692.76032450737 x_20 +2307.23967549263 x_21 +1692.76032450737 x_22 +2307.23967549263 x_23
      +1692.76032450737 x_24 +2307.23967549263 x_25 +1692.76032450737 x_26 +2307.23967549263 x_27 +2962.3305678879 x_28 +4037.6694321121 x_29 +2962.3305678879 x_30 +4037.6694321121 x_31 +2962.3305678879 x_32 +4037.6694321121 x_33
      +2962.3305678879 x_34 +4037.6694321121 x_35 +2962.3305678879 x_36 +4037.6694321121 x_37 +2962.3305678879 x_38 +4037.6694321121 x_39 +2962.3305678879 x_40 +4037.6694321121 x_41 +423.190081126844 x_120 +576.809918873156 x_121
      +423.190081126844 x_122 +576.809918873156 x_123 +423.190081126844 x_124 +576.809918873156 x_125 +423.190081126844 x_126 +576.809918873156 x_127 +423.190081126844 x_128 +576.809918873156 x_129 +423.190081126844 x_130 +576.809918873156 x_131
      +423.190081126844 x_132 +576.809918873156 x_133
Subject to
row_0:  -1000 x_0 +5 x_14 +10 x_28 -1 x_42 -1 x_43 -1 x_68 -1 x_69 -1 x_94 -1 x_95 +1 x_120
           <= 1
row_1:  -1000 x_0 +5 x_14 +10 x_28 -1 x_42 -1 x_44 -1 x_68 -1 x_70 -1 x_94 -1 x_96 +1 x_120
           <= 1
row_2:  -1000 x_1 +5 x_15 +10 x_29 -1 x_45 -1 x_46 -1 x_71 -1 x_72 -1 x_97 -1 x_98 +1 x_121
           <= 1
row_3:  -1000 x_1 +5 x_15 +10 x_29 -1 x_45 -1 x_47 -1 x_71 -1 x_73 -1 x_97 -1 x_99 +1 x_121
           <= 1
row_4:  -1000 x_2 +5 x_16 +10 x_30 -1 x_48 -1 x_49 -1 x_74 -1 x_75 -1 x_100 -1 x_101 +1 x_122
           <= 1
row_5:  -1000 x_2 +5 x_16 +10 x_30 -1 x_48 -1 x_50 -1 x_74 -1 x_76 -1 x_100 -1 x_102 +1 x_122
           <= 1
row_6:  -1000 x_3 +5 x_17 +10 x_31 -1 x_51 -1 x_52 -1 x_77 -1 x_78 -1 x_103 -1 x_104 +1 x_123
           <= 1
row_7:  -1000 x_3 +5 x_17 +10 x_31 -1 x_51 -1 x_53 -1 x_77 -1 x_79 -1 x_103 -1 x_105 +1 x_123
           <= 1
row_8:  -1000 x_4 +5 x_18 +10 x_32 -1 x_54 -1 x_55 -1 x_80 -1 x_81 -1 x_106 -1 x_107 +1 x_124
           <= 1
row_9:  -1000 x_4 +5 x_18 +10 x_32 -1 x_54 -1 x_56 -1 x_80 -1 x_82 -1 x_106 -1 x_108 +1 x_124
           <= 1
row_10:  -1000 x_5 +5 x_19 +10 x_33 -1 x_57 -1 x_58 -1 x_83 -1 x_84 -1 x_109 -1 x_110 +1 x_125
           <= 1
row_11:  -1000 x_5 +5 x_19 +10 x_33 -1 x_57 -1 x_59 -1 x_83 -1 x_85 -1 x_109 -1 x_111 +1 x_125
           <= 1
row_12:  -1000 x_6 +5 x_20 +10 x_34 -1 x_60 -1 x_86 -1 x_112 +1 x_126 <= 1
row_13:  -1000 x_7 +5 x_21 +10 x_35 -1 x_61 -1 x_87 -1 x_113 +1 x_127 <= 1
row_14:  -1000 x_8 +5 x_22 +10 x_36 -1 x_62 -1 x_88 -1 x_114 +1 x_128 <= 1
row_15:  -1000 x_9 +5 x_23 +10 x_37 -1 x_63 -1 x_89 -1 x_115 +1 x_129 <= 1
row_16:  -1000 x_10 +5 x_24 +10 x_38 -1 x_64 -1 x_90 -1 x_116 +1 x_130 <= 1
row_17:  -1000 x_11 +5 x_25 +10 x_39 -1 x_65 -1 x_91 -1 x_117 +1 x_131 <= 1
row_18:  -1000 x_12 +5 x_26 +10 x_40 -1 x_66 -1 x_92 -1 x_118 +1 x_132 <= 1
row_19:  -1000 x_13 +5 x_27 +10 x_41 -1 x_67 -1 x_93 -1 x_119 +1 x_133 <= 1
row_20:  -1 x_42 -1 x_43 +1 x_120 >= 0
row_21:  -1 x_42 -1 x_44 +1 x_120 >= 0
row_22:  -1 x_45 -1 x_46 +1 x_121 >= 0
row_23:  -1 x_45 -1 x_47 +1 x_121 >= 0
row_24:  -1 x_48 -1 x_49 +1 x_122 >= 0
row_25:  -1 x_48 -1 x_50 +1 x_122 >= 0
row_26:  -1 x_51 -1 x_52 +1 x_123 >= 0
row_27:  -1 x_51 -1 x_53 +1 x_123 >= 0
row_28:  -1 x_54 -1 x_55 +1 x_124 >= 0
row_29:  -1 x_54 -1 x_56 +1 x_124 >= 0
row_30:  -1 x_57 -1 x_58 +1 x_125 >= 0
row_31:  -1 x_57 -1 x_59 +1 x_125 >= 0
row_32:  -1 x_60 +1 x_126 >= 0
row_33:  -1 x_61 +1 x_127 >= 0
row_34:  -1 x_62 +1 x_128 >= 0
row_35:  -1 x_63 +1 x_129 >= 0
row_36:  -1 x_64 +1 x_130 >= 0
row_37:  -1 x_65 +1 x_131 >= 0
row_38:  -1 x_66 +1 x_132 >= 0
row_39:  -1 x_67 +1 x_133 >= 0
row_40:  +5 x_14 -1 x_68 -1 x_69 >= 0
row_41:  +5 x_14 -1 x_68 -1 x_70 >= 0
row_42:  +5 x_15 -1 x_71 -1 x_72 >= 0
row_43:  +5 x_15 -1 x_71 -1 x_73 >= 0
row_44:  +5 x_16 -1 x_74 -1 x_75 >= 0
row_45:  +5 x_16 -1 x_74 -1 x_76 >= 0
row_46:  +5 x_17 -1 x_77 -1 x_78 >= 0
row_47:  +5 x_17 -1 x_77 -1 x_79 >= 0
row_48:  +5 x_18 -1 x_80 -1 x_81 >= 0
row_49:  +5 x_18 -1 x_80 -1 x_82 >= 0
row_50:  +5 x_19 -1 x_83 -1 x_84 >= 0
row_51:  +5 x_19 -1 x_83 -1 x_85 >= 0
row_52:  +5 x_20 -1 x_86 >= 0
row_53:  +5 x_21 -1 x_87 >= 0
row_54:  +5 x_22 -1 x_88 >= 0
row_55:  +5 x_23 -1 x_89 >= 0
row_56:  +5 x_24 -1 x_90 >= 0
row_57:  +5 x_25 -1 x_91 >= 0
row_58:  +5 x_26 -1 x_92 >= 0
row_59:  +5 x_27 -1 x_93 >= 0
row_60:  +10 x_28 -1 x_94 -1 x_95 >= 0
row_61:  +10 x_28 -1 x_94 -1 x_96 >= 0
row_62:  +10 x_29 -1 x_97 -1 x_98 >= 0
row_63:  +10 x_29 -1 x_97 -1 x_99 >= 0
row_64:  +10 x_30 -1 x_100 -1 x_101 >= 0
row_65:  +10 x_30 -1 x_100 -1 x_102 >= 0
row_66:  +10 x_31 -1 x_103 -1 x_104 >= 0
row_67:  +10 x_31 -1 x_103 -1 x_105 >= 0
row_68:  +10 x_32 -1 x_106 -1 x_107 >= 0
row_69:  +10 x_32 -1 x_106 -1 x_108 >= 0
row_70:  +10 x_33 -1 x_109 -1 x_110 >= 0
row_71:  +10 x_33 -1 x_109 -1 x_111 >= 0
row_72:  +10 x_34 -1 x_112 >= 0
row_73:  +10 x_35 -1 x_113 >= 0
row_74:  +10 x_36 -1 x_114 >= 0
row_75:  +10 x_37 -1 x_115 >= 0
row_76:  +10 x_38 -1 x_116 >= 0
row_77:  +10 x_39 -1 x_117 >= 0
row_78:  +10 x_40 -1 x_118 >= 0
row_79:  +10 x_41 -1 x_119 >= 0
row_80:  +100 x_6 +1 x_42 +1 x_68 +1 x_94 >= 1
row_81:  +100 x_7 +1 x_42 +1 x_68 +1 x_94 >= 1
row_82:  +100 x_8 +1 x_42 +1 x_68 +1 x_94 >= 1
row_83:  +100 x_9 +1 x_42 +1 x_68 +1 x_94 >= 1
row_84:  +100 x_10 +1 x_45 +1 x_71 +1 x_97 >= 2
row_85:  +100 x_11 +1 x_45 +1 x_71 +1 x_97 >= 2
row_86:  +100 x_12 +1 x_45 +1 x_71 +1 x_97 >= 2
row_87:  +100 x_13 +1 x_45 +1 x_71 +1 x_97 >= 2
row_88:  +100 x_6 +1 x_43 +1 x_48 +1 x_69 +1 x_74 +1 x_95 +1 x_100 >= 1
row_89:  +100 x_7 +1 x_43 +1 x_48 +1 x_69 +1 x_74 +1 x_95 +1 x_100 >= 1
row_90:  +100 x_8 +1 x_44 +1 x_51 +1 x_70 +1 x_77 +1 x_96 +1 x_103 >= 2
row_91:  +100 x_9 +1 x_44 +1 x_51 +1 x_70 +1 x_77 +1 x_96 +1 x_103 >= 2
row_92:  +100 x_10 +1 x_46 +1 x_54 +1 x_72 +1 x_80 +1 x_98 +1 x_106 >= 1
row_93:  +100 x_11 +1 x_46 +1 x_54 +1 x_72 +1 x_80 +1 x_98 +1 x_106 >= 1
row_94:  +100 x_12 +1 x_47 +1 x_57 +1 x_73 +1 x_83 +1 x_99 +1 x_109 >= 2
row_95:  +100 x_13 +1 x_47 +1 x_57 +1 x_73 +1 x_83 +1 x_99 +1 x_109 >= 2
row_96:  +100 x_6 +1 x_49 +1 x_60 +1 x_75 +1 x_86 +1 x_101 +1 x_112 >= 1
row_97:  +100 x_7 +1 x_50 +1 x_61 +1 x_76 +1 x_87 +1 x_102 +1 x_113 >= 2
row_98:  +100 x_8 +1 x_52 +1 x_62 +1 x_78 +1 x_88 +1 x_104 +1 x_114 >= 1
row_99:  +100 x_9 +1 x_53 +1 x_63 +1 x_79 +1 x_89 +1 x_105 +1 x_115 >= 2
row_100:  +100 x_10 +1 x_55 +1 x_64 +1 x_81 +1 x_90 +1 x_107 +1 x_116 >= 1
row_101:  +100 x_11 +1 x_56 +1 x_65 +1 x_82 +1 x_91 +1 x_108 +1 x_117 >= 2
row_102:  +100 x_12 +1 x_58 +1 x_66 +1 x_84 +1 x_92 +1 x_110 +1 x_118 >= 1
row_103:  +100 x_13 +1 x_59 +1 x_67 +1 x_85 +1 x_93 +1 x_111 +1 x_119 >= 2
row_104:  -1 x_0 +1 x_6 >= 0
row_105:  -1 x_2 +1 x_6 >= 0
row_106:  -1 x_0 +1 x_7 >= 0
row_107:  -1 x_2 +1 x_7 >= 0
row_108:  -1 x_0 +1 x_8 >= 0
row_109:  -1 x_3 +1 x_8 >= 0
row_110:  -1 x_0 +1 x_9 >= 0
row_111:  -1 x_3 +1 x_9 >= 0
row_112:  -1 x_1 +1 x_10 >= 0
row_113:  -1 x_4 +1 x_10 >= 0
row_114:  -1 x_1 +1 x_11 >= 0
row_115:  -1 x_4 +1 x_11 >= 0
row_116:  -1 x_1 +1 x_12 >= 0
row_117:  -1 x_5 +1 x_12 >= 0
row_118:  -1 x_1 +1 x_13 >= 0
row_119:  -1 x_5 +1 x_13 >= 0
row_120:  +0.0757890459347321 x_6 +0.103300798829412 x_7 +0.103300798829412 x_8 +0.140799437533287 x_9 +0.103300798829412 x_10 +0.140799437533287 x_11 +0.140799437533287 x_12 +0.191910244977171 x_13 <= 0.05
Bounds
 -0 <= x_0 <= 1
 -0 <= x_1 <= 1
 -0 <= x_2 <= 1
 -0 <= x_3 <= 1
 -0 <= x_4 <= 1
 -0 <= x_5 <= 1
 -0 <= x_6 <= 1
 -0 <= x_7 <= 0
 -0 <= x_8 <= 0
 -0 <= x_9 <= 0
 -0 <= x_10 <= 0
 -0 <= x_11 <= 0
 -0 <= x_12 <= 0
 -0 <= x_13 <= 0
 -0 <= x_14 <= 0
 1 <= x_15 <= 3
 -0 <= x_16 <= 0
 -0 <= x_17 <= 0
 -0 <= x_18 <= 0
 -0 <= x_19 <= 0
 -0 <= x_20 <= 2
 -0 <= x_21 <= 2
 -0 <= x_22 <= 2
 -0 <= x_23 <= 0
 -0 <= x_24 <= 2
 -0 <= x_25 <= 2
 -0 <= x_26 <= 2
 -0 <= x_27 <= 2
 -0 <= x_28 <= 0
 -0 <= x_29 <= 0
 -0 <= x_30 <= 0
 -0 <= x_31 <= 0
 -0 <= x_32 <= 0
 -0 <= x_33 <= 0
 -0 <= x_34 <= 1
 -0 <= x_35 <= 1
 -0 <= x_36 <= 1
 -0 <= x_37 <= 0
 -0 <= x_38 <= 1
 -0 <= x_39 <= 1
 -0 <= x_40 <= 1
 -0 <= x_41 <= 0
 1 <= x_42 <= 12
 -0 <= x_43 <= 11
 -0 <= x_44 <= 11
 -0 <= x_45 <= 8
 -0 <= x_46 <= 8
 -0 <= x_47 <= 8
 -0 <= x_48 <= 11
 -0 <= x_49 <= 11
 -0 <= x_50 <= 11
 -0 <= x_51 <= 8
 -0 <= x_52 <= 8
 -0 <= x_53 <= 8
 -0 <= x_54 <= 11
 -0 <= x_55 <= 11
 -0 <= x_56 <= 11
 -0 <= x_57 <= 8
 -0 <= x_58 <= 8
 -0 <= x_59 <= 8
 -0 <= x_60 <= 11
 -0 <= x_61 <= 8
 -0 <= x_62 <= 11
 -0 <= x_63 <= 8
 -0 <= x_64 <= 11
 -0 <= x_65 <= 8
 -0 <= x_66 <= 11
 -0 <= x_67 <= 8
 -0 <= x_68 <= 0
 -0 <= x_69 <= 0
 -0 <= x_70 <= 0
 3 <= x_71 <= 15
 -0 <= x_72 <= 12
 -0 <= x_73 <= 12
 -0 <= x_74 <= 0
 -0 <= x_75 <= 0
 -0 <= x_76 <= 0
 -0 <= x_77 <= 0
 -0 <= x_78 <= 0
 -0 <= x_79 <= 0
 -0 <= x_80 <= 25
 -0 <= x_81 <= 25
 -0 <= x_82 <= 25
 -0 <= x_83 <= 0
 -0 <= x_84 <= 0
 -0 <= x_85 <= 0
 -0 <= x_86 <= 10
 -0 <= x_87 <= 10
 -0 <= x_88 <= 10
 -0 <= x_89 <= 0
 -0 <= x_90 <= 10
 -0 <= x_91 <= 10
 -0 <= x_92 <= 10
 -0 <= x_93 <= 10
 -0 <= x_94 <= 0
 -0 <= x_95 <= 0
 -0 <= x_96 <= 0
 -0 <= x_97 <= 0
 -0 <= x_98 <= 0
 -0 <= x_99 <= 0
 -0 <= x_100 <= 0
 -0 <= x_101 <= 0
 -0 <= x_102 <= 0
 -0 <= x_103 <= 0
 -0 <= x_104 <= 0
 -0 <= x_105 <= 0
 -0 <= x_106 <= 0
 -0 <= x_107 <= 0
 -0 <= x_108 <= 0
 -0 <= x_109 <= 0
 -0 <= x_110 <= 0
 -0 <= x_111 <= 0
 -0 <= x_112 <= 10
 -0 <= x_113 <= 20
 -0 <= x_114 <= 10
 -0 <= x_115 <= 0
 -0 <= x_116 <= 10
 -0 <= x_117 <= 20
 -0 <= x_118 <= 10
 -0 <= x_119 <= 20
 1 <= x_120 <= 12
 -0 <= x_121 <= 8
 -0 <= x_122 <= 11
 -0 <= x_123 <= 8
 -0 <= x_124 <= 11
 -0 <= x_125 <= 8
 -0 <= x_126 <= 11
 -0 <= x_127 <= 8
 -0 <= x_128 <= 11
 -0 <= x_129 <= 8
 -0 <= x_130 <= 11
 -0 <= x_131 <= 8
 -0 <= x_132 <= 11
 -0 <= x_133 <= 8
Generals
 x_0  x_1  x_2  x_3  x_4  x_5  x_6  x_7  x_8  x_9 
 x_10  x_11  x_12  x_13  x_14  x_15  x_16  x_17  x_18  x_19 
 x_20  x_21  x_22  x_23  x_24  x_25  x_26  x_27  x_28  x_29 
 x_30  x_31  x_32  x_33  x_34  x_35  x_36  x_37  x_38  x_39 
 x_40  x_41  x_42  x_43  x_44  x_45  x_46  x_47  x_48  x_49 
 x_50  x_51  x_52  x_53  x_54  x_55  x_56  x_57  x_58  x_59 
 x_60  x_61  x_62  x_63  x_64  x_65  x_66  x_67  x_68  x_69 
 x_70  x_71  x_72  x_73  x_74  x_75  x_76  x_77  x_78  x_79 
 x_80  x_81  x_82  x_83  x_84  x_85  x_86  x_87  x_88  x_89 
 x_90  x_91  x_92  x_93  x_94  x_95  x_96  x_97  x_98  x_99 
 x_100  x_101  x_102  x_103  x_104  x_105  x_106  x_107  x_108  x_109 
 x_110  x_111  x_112  x_113  x_114  x_115  x_116  x_117  x_118  x_119 
 x_120  x_121  x_122  x_123  x_124  x_125  x_126  x_127  x_128  x_129 
 x_130  x_131  x_132  x_133 
End